2286
2286
2286
2286
2286
2286
2286
2286
2286
2286
2286
2286
2286
2286
2286
2286
2286
2286
2286
2286
2286
2286
2286
2286
2286
2286
2286
2286
2286
2286
2286
2258
2179
2179
2179
2179
2179
2179
2179
2179
2179
2179
2179
2179
2179
2179
2179
2179
2179
2179
2179
2179
2179
2179
2179
2179
2179
2179
2179
2179
2179
2179
2179
2179
2179
2179
2179
2179
2179
2179
2179
2179
2179
2179
2179
2179
2179
2179
2179
2179
2179
2179
2179
2179
2179
2179
2179
2179
2179
2179
2179
2179
2179
2179
2179
2179
2179
2179
2179
2179
2179
2179
2179
2179
2179
2179
2179
2179
2179
2179
2179
2179
2179
2179
2179
2179
2179
2179
2179
2179
2179
2179
2179
2179
2179
2179
2179
2179
2179
2179
2179
2179
2179
2179
2179
2179
2179
2179
2179
2179
2179
2179
2179
2179
2179
2179
2179
2179
2179
2179
2179
2179
2179
2179
2179
2179
2179
2179
2179
2179
2179
2179
2179
2179
2179
2179
2179
2179
2179
2179
2179
2179
2179
2179
2179
2179
2179
2179
2179
2179
2179
2179
2179
2179
2179
2179
2179
2179
2179
2179
2179
2179
2179
2179
2179
2179
2179
2179
2179
2179
2179
2179
2179
2179
2179
2179
2179
2179
2179
2179
2179
2179
2179
2179
2179
2179
2179
2179
2179
2179
2179
2179
2179
2179
2179
2179
2179
2179
2179
2179
2179
2179
2179
2179
2179
2179
2179
2179
2179
2179
2179
2179
2179
2179
2179
2179
2179
2179
2179
2179
2179
2179
2179
2179
2179
2179
2179
2179
2179
2179
2179
2179
2179
2179
2179
2179
2179
2179
2179
2179
2179
2179
2179
2179
2179
2179
2179
2179
2179
2179
2179
2179
2179
2179
2179
2179
2179
2179
2179
2179
2179
2179
2179
2179
2179
2179
2179
2179
2179
2179
2179
2179
2179
2179
2179
2179
2179
2179
2179
2179
2179
2179
2179
2179
2179
2179
2179
2179
2179
2179
2179
2179
2179
2179
2179
2179
2179
2179
2179
2179
2179
2179
2179
2179
2179
2179
2179
2179
2179
2179
2179
2179
2179
2179
2179
2179
2179
2179
2179
2179
2179
2179
2179
2179
2179
2179
2179
2179
2179
2179
2179
2179
2179
2179
2179
2179
2179
2179
2179
2179
2179
2179
2179
2179
2179
2179
2179
2179
2179
2179
2179
2179
2179
2179
2179
2179
2179
2179
2179
2179
2179
2179
2179
2179
2179
2179
2179
2179
2179
2179
2179
2179
2179
2179
2179
2179
2179
2179
2179
2179
2179
2179
2179
2179
2179
2179
2179
2179
2179
2179
2179
2179
2179
2179
2179
2179
2179
2179
2179
2179
2179
2179
2179
2179
2179
2179
2179
2179
2179
2179
2179
2179
2179
2179
2179
2179
2179
2179
2179
2179
2179
2179
2179
2179
2179
2179
2179
2179
2179
2179
2179
2179
2179
2179
2179
2179
2179
2179
2179
2179
2179
2179
2179
2179
2179
2179
2179
2179
2179
2179
2179
2179
2179
2179
2179
2179
2179
2179
2179
2179
2179
2179
2179
2179
2179
2179
2179
2179
2179
2179
2179
2179
2179
2179
2179
2179
2179
2179
2179
2179
2179
2179
2179
2179
2179
2179
2179
2179
2179
2179
2179
2179
2179
2179
2179
2179
2179
2179
2179
2179
2179
2179
2179
2179
2179
2179
2179
2179
2179
2179
2179
2179
2179
2179
2179
2179
2179
2179
2179
2179
2179
2179
2179
2179
2179
2179
2179
2179
2179
2179
2179
2179
2179
2179
2179
2179
2179
2179
2179
2179
2179
2179
2179
2179
2179
2179
2179
2179
2179
2179
2179
2179
2179
2179
2179
2179
2179
2179
2179
2179
2179
2179
2179
2179
2179
2179
2179
2179
2179
2179
2179
2179
2179
2179
2179
2179
2179
2179
2179
2179
2179
2179
2179
2179
2179
2179
2179
2179
2179
2179
2179
2179
2179
2179
2179
2179
2179
2179
2179
2179
2179
2179
2179
2179
2179
2179
2179
2179
2179
2179
2179
2179
2179
2179
2179
2179
2179
2179
2179
2179
2179
2179
2179
2179
2179
2179
2179
2179
2179
2179
2179
2179
2179
2179
2179
2179
2179
2179
2179
2179
2179
2179
2179
2179
2179
2179
2179
2179
2179
2179
2179
2179
2179
2179
2179
2179
2179
2179
2179
2179
2179
2179
2179
2179
2179
2179
2179
2179
2179
2179
2179
2179
2179
2179
2179
2179
2179
2179
2179
2179
2179
2179
2179
2179
2179
2179
2179
2179
2179
2179
2179
2179
2179
2179
2179
2179
2179
2179
2179
2179
2179
2179
2179
2179
2179
2179
2179
2179
2179
2179
2179
2179
2179
2179
2179
2179
2179
2179
2179
2179
2179
2179
2179
2179
2179
2179
2179
2179
2179
2179
2179
2179
2179
2179
2179
2179
2179
2179
2179
2179
2179
2179
2179
2179
2179
2179
2179
2179
2179
2179
2179
2179
2179
2179
2179
2179
2179
2179
2179
2179
2179
2179
2179
2179
2179
2179
2179
2179
2179
2179
2179
2179
2179
2179
2179
2179
2179
2179
2179
2179
2179
2179
2179
2179
2179
2179
2179
2179
2179
2179
2179
2179
2179
2179
2179
2179
2179
2179
2179
2179
2179
2179
2179
2179
2179
2179
2179
2179
2179
2179
2179
2179
2179
2179
2179
2179
2179
2179
2179
2179
2179
2179
2179
2179
2179
2179
2179
2179
2179
2179
2179
2179
2179
2179
2179
2179
2179
2179
2179
2179
2179
2179
2179
2179
2179
2179
2179
2179
2179
2179
2179
2179
2179
2179
2179
2179
2179
2179
2179
2179
2179
2179
2179
2179
2179
2179
2179
2179
2179
2179
2179
2179
2179
2179
2179
2179
2179
2179
2179
2179
2179
2179
2179
2179
2179
2179
2179
2179
2179
2179
2179
2179
2179
2179
2179
2179
2179
2179
2179
2179
2179
2179
2179
2179
2179
2179
2179
2179
2179
2179
2179
2179
2179
2179
2179
2179
2179
2179
2179
2179
2179
2179
2179
2179
2179
2179
2179
2179
2179
2179
2179
2179
2179
2179
2179
2179
2179
2179
2179
2179
2179
2179
2179
2179
2179
2179
2179
2179
2179
2179
2179
2179
2179
2179
2179
2179
2179
2179
2179
2179
2179
2179
2179
2179
2179
2179
2179
2179
2179
2179
2179
2179
2179
2179
2179
2179
2179
2179
2179
2179
2179
2179
2179
2179
2179
2179
2179
2179
2179
2179
2179
2179
2179
2179
2179
2179
2179
2179
2179
2179
2179
2179
2179
2179
2179
2179
2179
2179
2179
2179
2179
2179
2179
2179
2179
2179
2179
2179
2179
2179
2179
2179
2179
2179
2179
2179
2179
2179
2179
2179
2179
2179
2179
2179
2179
2179
2179
2179
2179
2179
2179
2179
2179
2179
2179
2179
2179
2179
2179
2179
2179
2179
2179
2179
2179
2179
2179
2179
2179
2179
2179
2179
2179
2179
2179
2179
2179
2179
2179
2179
2179
2179
2179
2179
2179
2179
2179
2179
2179
2179
2179
2179
2179
2179
2179
2179
2179
2179
2179
2179
2179
2179
2179
2179
2179
2179
2179
2179
2179
2179
2179
2179
2179
2179
2179
2179
2179
2179
2179
2179
2179
2179
2179
2179
2179
2179
2179
2179
2179
2179
2179
2179
2179
2179
2179
2179
2179
2179
2179
2179
2179
2179
2179
2179
2179
2179
2179
2179
2179
2179
2179
2179
2179
2179
2179
2179
2179
2179
2179
2179
2179
2179
2179
2179
2179
2179
2179
2179
2179
2179
2179
2179
2179
2179
2179
2179
2179
2179
2179
2179
2179
2179
2179
2179
2179
2179
2179
2179
2179
2179
2179
2179
2179
2179
2179
2179
2179
2179
2179
2179
2179
2179
2179
2179
2179
2179
2179
2179
2179
2179
2179
2179
2179
2179
2179
2179
2179
2179
2179
2179
2179
2179
2179
2179
2179
2179
2179
2179
2179
2179
2179
2179
2138
2138
2138
2138
2138
2138
2138
2138
2138
2138
2138
2138
2138
2138
2138
2138
2138
2138
2138
2138
2138
2138
2138
2138
2138
2138
2138
2138
2138
2138
2138
2138
2138
2138
2138
2138
2138
2138
2138
2138
2138
2138
2138
2138
2138
2138
2138
2138
2138
2138
2138
2138
2138
2138
2138
2138
2138
2138
2138
2138
2138
2138
2138
2138
2138
2138
2138
2138
2138
2138
2138
2138
2138
2138
2138
2138
2138
2138
2138
2138
2138
2138
2138
2138
2138
2138
2138
2138
2138
2138
2138
2138
2138
2138
2138
2138
2138
2138
2138
2138
2138
2138
2138
2138
2138
2138
2138
2138
2138
2138
2138
2138
2138
2138
2138
2138
2138
2138
2138
2138
2138
2138
2138
2138
2138
2138
2138
2138
2138
2138
2138
2138
2138
2138
2138
2138
2138
2138
2138
2138
2138
2138
2138
2138
2138
2138
2138
2138
2138
2138
2138
2138
2138
2138
2138
2138
2138
2138
2138
2138
2138
2138
2138
2138
2138
2138
2138
2138
2138
2138
2138
2138
2138
2138
2138
2138
2138
2138
2138
2138
2138
2138
2138
2138
2138
2138
2138
2138
2138
2138
2138
2138
2138
2138
2138
2138
2138
2138
2138
2138
2138
2138
2138
2138
2138
2138
2138
2138
2138
2138
2138
2138
2138
2138
2138
2138
2138
2138
2138
2138
2138
2138
2138
2138
2138
2138
2138
2138
2138
2138
2138
2138
2138
2138
2138
2138
2138
2138
2138
2138
2138
2138
2138
2138
2138
2138
2138
2138
2138
2138
2138
2138
2138
2138
2138
2138
2138
2138
2138
2138
2138
2138
2138
2138
2138
2138
2138
2138
2138
2138
2138
2138
2138
2138
2138
2138
2138
2138
2138
2138
2138
2138
2138
2138
2138
2138
2138
2138
2138
2138
2138
2138
2138
2138
2138
2138
2138
2138
2138
2138
2138
2138
2138
2138
2138
2138
2138
2138
2138
2138
2138
2138
2138
2138
2138
2138
2138
2138
2138
2138
2138
2138
2138
2138
2138
2138
2138
2138
2138
2138
2138
2138
2138
2138
2138
2138
2138
2138
2138
2138
2138
2138
2138
2138
2138
2138
2138
2138
2138
2138
2138
2138
2138
2138
2138
2138
2138
2138
2138
2138
2138
2138
2138
2138
2138
2138
2138
2138
2138
2138
2138
2138
2138
2138
2138
2138
2138
2138
2138
2138
2138
2138
2138
2138
2138
2138
2138
2138
2138
2138
2138
2138
2138
2138
2138
2138
2138
2138
2138
2138
2138
2138
2138
2138
2138
2138
2138
2138
2138
2138
2138
2138
2138
2138
2138
2138
2138
2138
2138
2138
2138
2138
2138
2138
2138
2138
2138
2138
2138
2138
2138
2138
2138
2138
2138
2138
2138
2138
2138
2138
2138
2138
2138
2138
2138
2138
2138
2138
2138
2138
2138
2138
2138
2138
2138
2138
2138
2138
2138
2138
2138
2138
2138
2138
2138
2138
2138
2138
2138
2138
2138
2138
2138
2138
2138
2138
2138
2138
2138
2138
2138
2138
2138
2138
2138
2138
2138
2138
2138
2138
2138
2138
2138
2138
2138
2138
2138
2138
2138
2138
2138
2138
2138
2138
2138
2138
2138
2138
2138
2138
2138
2138
2138
2138
2138
2138
2138
2138
2138
2138
2138
2138
2138
2138
2138
2138
2138
2138
2138
2138
2138
2138
2138
2138
2138
2138
2138
2138
2138
2138
2138
2138
2138
2138
2138
2138
2138
2138
2138
2138
2138
2138
2138
2138
2138
2138
2138
2138
2138
2138
2138
2138
2138
2138
2138
2138
2138
2138
2138
2138
2138
2138
2138
2138
2138
2138
2138
2138
2138
2138
2138
2138
2138
2138
2138
2138
2138
2138
2138
2138
2138
2138
2138
2138
2138
2138
2138
2138
2138
2138
2138
2138
2138
2138
2138
2138
2138
2138
2138
2138
2138
2138
2138
2138
2138
2138
2138
2138
2138
2138
2138
2138
2138
2138
2138
2138
2138
2138
2138
2138
2138
2138
2138
2138
2138
2138
2138
2138
2138
2138
2138
2138
2138
2138
2138
2138
2138
2138
2138
2138
2138
2138
2138
2138
2138
2138
2138
2138
2138
2138
2138
2138
2138
2138
2138
2138
2138
2138
2138
2138
2138
2138
2138
2138
2138
2138
2138
2138
2138
2138
2138
2138
2138
2138
2138
2138
2138
2138
2138
2138
2138
2138
2138
2138
2138
2138
2138
2138
2138
2138
2138
2138
2138
2138
2138
2138
2138
2138
2138
2138
2138
2138
2138
2138
2138
2138
2138
2138
2138
2138
2138
2138
2138
2138
2138
2138
2138
2138
2138
2138
2138
2138
2138
2138
2138
2138
2138
2138
2138
2138
2138
2138
2138
2138
2138
2138
2138
